&CONTROL
  calculation = 'scf',
  disk_io = 'none',
  pseudo_dir = './pseudo',
/
&SYSTEM
  degauss = 0.025,
  ecutrho = 360.0,
  ecutwfc = 50.0,
  nosym = .FALSE.,
  occupations = 'smearing',
  smearing = 'gauss',
  ibrav = 0,
  nat = 24,
  ntyp = 3,
/
&ELECTRONS
  conv_thr = 1d-10,
  electron_maxstep = 10,
/
&IONS
/
&CELL
/
ATOMIC_SPECIES
  Ag+  107.8682 Ag_ONCV_PBE-1.0.oncvpsp.upf
  B3+  10.8110 b_pbe_v1.4.uspp.F.UPF
  F-  18.9984 f_pbe_v1.4.uspp.F.UPF
ATOMIC_POSITIONS crystal
  Ag+ 0.250000 0.167260 0.178816
  Ag+ 0.750000 0.832740 0.821184
  Ag+ 0.750000 0.667260 0.321184
  Ag+ 0.250000 0.332740 0.678816
  B3+ 0.250000 0.685075 0.066023
  B3+ 0.750000 0.314925 0.933977
  B3+ 0.750000 0.185075 0.433977
  B3+ 0.250000 0.814925 0.566023
  F- 0.030835 0.808568 0.076887
  F- 0.969165 0.191432 0.923113
  F- 0.969165 0.308568 0.423113
  F- 0.030835 0.691432 0.576887
  F- 0.469165 0.691432 0.576887
  F- 0.530835 0.308568 0.423113
  F- 0.530835 0.191432 0.923113
  F- 0.469165 0.808568 0.076887
  F- 0.750000 0.415706 0.086655
  F- 0.250000 0.584294 0.913345
  F- 0.250000 0.915706 0.413345
  F- 0.750000 0.084294 0.586655
  F- 0.250000 0.550932 0.200418
  F- 0.750000 0.449068 0.799582
  F- 0.750000 0.050932 0.299582
  F- 0.250000 0.949068 0.700418
K_POINTS automatic
  12 1 1 0 0 0
CELL_PARAMETERS angstrom
  0.000000 5.241049 0.000000
  -0.000000 -0.000000 6.685718
  8.000974 -0.000000 0.000000